%BLOCK LATTICE_CART
100 0 0
0 100 0
0 0 100
#FIX
%ENDBLOCK LATTICE_CART
 
%BLOCK POSITIONS_FRAC
C 0.0 0.0 0.0 # C1 % NUM={240}
%ENDBLOCK POSITIONS_FRAC
#C 0.0 0.0 0.0 # C1 % NUM={180,200,220,240,260,280,300,320,340,360,380,400,420,440,460,480,500,520,540,560,580,600,620,640,660,680,700,720}

FIX_ALL_CELL : true

##SYMMOPS=2-24
#SYMMOPS=24
#NFORM=1

##SPHERE=12.1
##POSAMP=12.5
##SPHERE=8.1
##POSAMP=9.0
##SPHERE=7.0
##POSAMP=7.6
##POSAMP=8.0

##MINAMP=6.5

#MINAMP=6.0
#SPHERE=7.0
#POSAMP=7.6


#CLUSTER

##MINSEP=1.44
#MINSEP=1.55

##COORD=3
#MINBANGLE=91

#MAXTIME=120


