%BLOCK LATTICE_CART
50 0 0
0 50 0
0 0 50
#FIX
%ENDBLOCK LATTICE_CART

%BLOCK POSITIONS_FRAC
C 0.0 0.0 0.0 # Al1 % NUM=60
%ENDBLOCK POSITIONS_FRAC

FIX_ALL_CELL : true

#MINSEP=1.4
#CLUSTER
#POSAMP=3.0
##POSAMP=3.0 AUTO
#SYMMOPS=1-24
#NFORM=1


##NFORM is needed for higher-symm calculations.

