%BLOCK LATTICE_CART
50 0 0
0 50 0
0 0 50
#FIX
%ENDBLOCK LATTICE_CART
 
%BLOCK POSITIONS_FRAC
C 0.0 0.0 0.0 # C1 % NUM=4-200
%ENDBLOCK POSITIONS_FRAC

FIX_ALL_CELL : true

#MINSEP=1.4
#CLUSTER
#POSAMP=3.0
